40 1 3
820 507 89 786 342 812 919 278 195 861 351 447 21 38 130 349 725 530 687 927 845 120 58 286 626 608 321 752 624 970 59 444 476 147 229 817 959 148 94 154 
8 445 600 29 482 730 377 207 259 63 134 104 183 191 389 809 799 709 560 423 679 618 866 154 765 95 971 723 242 65 877 250 509 477 278 990 206 655 196 464 
718 329 567 900 520 956 709 318 665 268 740 343 885 606 497 650 700 467 373 942 531 249 191 39 725 469 29 930 124 224 394 841 553 961 741 72 916 449 390 581 
7170 1300 9230 6010 7350 4190 2510 4340 8860 6230 3750 4160 8710 5660 4550 5960 350 4830 5260 1580 7070 9200 9990 2600 8800 7390 3320 7950 1880 7210 3750 9040 8500 2980 5050 5840 7170 7550 180 6020 
111740
